(set-logic QF_S)
(declare-fun var0 () String)
(declare-fun var1 () String)
(declare-fun var2 () String)
(declare-fun var3 () String)
(declare-fun var4 () String)
(declare-fun var5 () String)
(declare-fun var6 () String)
(declare-fun var7 () String)
(declare-fun var8 () String)
(declare-fun var9 () String)
(declare-fun var10 () String)
(declare-fun var11 () String)
(declare-fun var12 () String)
(declare-fun var13 () String)
(declare-fun var14 () String)
(declare-fun var15 () String)
(declare-fun var16 () String)
(declare-fun var17 () String)
(declare-fun var18 () String)
(declare-fun var19 () String)
(declare-fun var20 () String)
(declare-fun var21 () String)
(declare-fun var22 () String)
(declare-fun var23 () String)
(declare-fun var24 () String)
(declare-fun var25 () String)
(declare-fun var26 () String)
(declare-fun var27 () String)
(declare-fun var28 () String)
(declare-fun var29 () String)
(declare-fun var30 () String)
(declare-fun var31 () String)
(declare-fun var32 () String)
(declare-fun var33 () String)
(declare-fun var34 () String)
(declare-fun var35 () String)
(declare-fun var36 () String)
(declare-fun var37 () String)
(declare-fun var38 () String)
(declare-fun var39 () String)
(declare-fun var40 () String)
(declare-fun var41 () String)
(declare-fun var42 () String)
(declare-fun var43 () String)
(declare-fun var44 () String)
(declare-fun var45 () String)
(declare-fun var46 () String)
(declare-fun var47 () String)
(declare-fun var48 () String)
(declare-fun var49 () String)
(declare-fun var50 () String)
(declare-fun var51 () String)
(declare-fun var52 () String)
(declare-fun var53 () String)
(declare-fun var54 () String)
(declare-fun var55 () String)
(declare-fun var56 () String)
(declare-fun var57 () String)
(declare-fun var58 () String)
(declare-fun var59 () String)
(declare-fun var60 () String)
(assert (= var0 (str.++ var1 var2)))
(assert (= var2 (str.++ var3 var4)))
(assert (= var4 (str.++ var5 var6)))
(assert (= var6 (str.++ var7 var8)))
(assert (= var8 (str.++ var9 var10)))
(assert (= var10 (str.++ var11 var12)))
(assert (= var12 (str.++ var13 var14)))
(assert (= var14 (str.++ var15 var16)))
(assert (= var16 (str.++ var17 var18)))
(assert (= var18 (str.++ var19 var20)))
(assert (= var20 (str.++ var21 var22)))
(assert (= var22 (str.++ var23 var24)))
(assert (= var24 (str.++ var25 var26)))
(assert (= var26 (str.++ var27 var28)))
(assert (= var28 (str.++ var29 var30)))
(assert (= var30 (str.++ var31 var32)))
(assert (= var32 (str.++ var33 var34)))
(assert (= var34 (str.++ var35 var36)))
(assert (= var36 (str.++ var37 var38)))
(assert (= var38 (str.++ var39 var40)))
(assert (= var40 (str.++ var41 var42)))
(assert (= var42 (str.++ var43 var44)))
(assert (= var44 (str.++ var45 var46)))
(assert (= var46 (str.++ var47 var48)))
(assert (= var48 (str.++ var49 var50)))
(assert (= var50 (str.++ var51 var52)))
(assert (= var52 (str.++ var53 var54)))
(assert (= var54 (str.++ var55 var56)))
(assert (= var56 (str.++ var57 var58)))
(assert (= var58 (str.++ var59 var60)))
(assert (= var0 "solution"))
(assert (= "8" (str.at var31 757)))
(assert (= "," (str.at var52 968)))
(assert (= "q" (str.at var39 383)))
(assert (= "W" (str.at var12 520)))
(assert (= "y" (str.at var54 620)))
(assert (= "#" (str.at var43 281)))
(assert (= "*" (str.at var16 875)))
(assert (= "j" (str.at var52 467)))
(assert (= "l" (str.at var44 888)))
(assert (= "g" (str.at var43 831)))
(assert (= "<" (str.at var49 321)))
(assert (= "0" (str.at var22 453)))
(assert (= "s" (str.at var20 774)))
(assert (= "y" (str.at var4 577)))
(assert (= "Y" (str.at var32 641)))
(assert (= "G" (str.at var24 506)))
(assert (= "=" (str.at var21 777)))
(assert (= "i" (str.at var38 204)))
(assert (= "-" (str.at var49 978)))
(assert (= "^" (str.at var4 699)))
(assert (= "^" (str.at var55 423)))
(assert (= ">" (str.at var38 259)))
(assert (= "8" (str.at var4 407)))
(assert (= "h" (str.at var30 731)))
(assert (= "6" (str.at var36 279)))
(assert (= "S" (str.at var9 380)))
(assert (= "G" (str.at var60 899)))
(assert (= "*" (str.at var47 60)))
(assert (= "<" (str.at var58 546)))
(assert (= "{" (str.at var11 716)))
(assert (= "`" (str.at var9 770)))
(assert (= "t" (str.at var26 154)))
(assert (= "Y" (str.at var45 126)))
(assert (= "1" (str.at var45 780)))
(assert (= "r" (str.at var35 893)))
(assert (= "q" (str.at var21 985)))
(assert (= "r" (str.at var22 364)))
(assert (= "v" (str.at var21 227)))
(assert (= "4" (str.at var13 240)))
(assert (= "v" (str.at var26 883)))
(assert (= "%" (str.at var38 91)))
(assert (= "o" (str.at var18 347)))
(assert (= "N" (str.at var8 791)))
(assert (= "C" (str.at var41 13)))
(assert (= "+" (str.at var6 283)))
(assert (= "\\" (str.at var16 502)))
(assert (= "(" (str.at var43 769)))
(assert (= ")" (str.at var50 471)))
(assert (= "<" (str.at var5 252)))
(assert (= "K" (str.at var1 397)))
(assert (= "X" (str.at var39 896)))
(assert (= "3" (str.at var47 172)))
(assert (= "," (str.at var10 228)))
(assert (= "D" (str.at var55 146)))
(assert (= "2" (str.at var5 162)))
(assert (= "/" (str.at var40 618)))
(assert (= "p" (str.at var25 154)))
(assert (= "*" (str.at var52 794)))
(assert (= "s" (str.at var17 933)))
(assert (= "(" (str.at var34 529)))
(assert (= "m" (str.at var48 175)))
(assert (= "x" (str.at var37 759)))
(assert (= "Z" (str.at var43 510)))
(assert (= "%" (str.at var4 482)))
(assert (= """" (str.at var20 67)))
(assert (= "h" (str.at var9 810)))
(assert (= "s" (str.at var37 371)))
(assert (= """" (str.at var57 111)))
(assert (= "$" (str.at var34 45)))
(assert (= "@" (str.at var26 579)))
(assert (= "3" (str.at var11 227)))
(assert (= "O" (str.at var53 396)))
(assert (= "b" (str.at var29 728)))
(assert (= "%" (str.at var33 12)))
(assert (= "^" (str.at var27 121)))
(assert (= "^" (str.at var16 285)))
(assert (= "R" (str.at var54 144)))
(assert (= "Z" (str.at var59 258)))
(assert (= "C" (str.at var39 88)))
(assert (= "~" (str.at var6 295)))
(assert (= "X" (str.at var5 619)))
(assert (= "W" (str.at var37 963)))
(assert (= "P" (str.at var59 13)))
(assert (= "L" (str.at var28 558)))
(assert (= "?" (str.at var8 725)))
(assert (= "3" (str.at var6 242)))
(assert (= "x" (str.at var13 870)))
(assert (= "<" (str.at var36 747)))
(assert (= "|" (str.at var12 877)))
(assert (= "H" (str.at var54 348)))
(assert (= "X" (str.at var51 674)))
(assert (= "J" (str.at var22 505)))
(assert (= "z" (str.at var47 216)))
(assert (= "S" (str.at var59 911)))
(assert (= "J" (str.at var50 537)))
(assert (= "," (str.at var11 735)))
(assert (= "f" (str.at var14 400)))
(assert (= "\\" (str.at var57 867)))
(assert (= ":" (str.at var22 907)))
(assert (= "a" (str.at var15 756)))
(assert (= "V" (str.at var6 983)))
(assert (= "&" (str.at var33 152)))
(assert (= "v" (str.at var17 612)))
(assert (= "w" (str.at var34 196)))
(assert (= "r" (str.at var32 471)))
(assert (= "m" (str.at var5 954)))
(assert (= "/" (str.at var34 270)))
(assert (= ">" (str.at var36 1000)))
(assert (= "3" (str.at var11 31)))
(assert (= "'" (str.at var24 181)))
(assert (= "<" (str.at var27 597)))
(assert (= "Z" (str.at var8 895)))
(assert (= "@" (str.at var60 29)))
(assert (= "}" (str.at var46 222)))
(assert (= ":" (str.at var12 633)))
(assert (= "i" (str.at var37 554)))
(assert (= "B" (str.at var6 618)))
(assert (= "'" (str.at var37 900)))
(assert (= "V" (str.at var46 584)))
(assert (= "+" (str.at var31 971)))
(assert (= "z" (str.at var51 530)))
(assert (= "#" (str.at var18 887)))
(assert (= "n" (str.at var35 36)))
(assert (= "O" (str.at var12 76)))
(assert (= "&" (str.at var55 786)))
(assert (= "w" (str.at var14 262)))
(assert (= "K" (str.at var58 667)))
(assert (= "`" (str.at var40 994)))
(assert (= "e" (str.at var49 374)))
(assert (= "t" (str.at var10 440)))
(assert (= "c" (str.at var40 897)))
(assert (= "x" (str.at var19 197)))
(assert (= "<" (str.at var41 293)))
(assert (= "!" (str.at var16 166)))
(assert (= "g" (str.at var51 273)))
(assert (= "f" (str.at var32 331)))
(assert (= "Q" (str.at var17 23)))
(assert (= "N" (str.at var51 892)))
(assert (= "8" (str.at var24 569)))
(assert (= "y" (str.at var5 692)))
(assert (= "(" (str.at var31 769)))
(assert (= "&" (str.at var22 52)))
(assert (= "g" (str.at var11 588)))
(assert (= "7" (str.at var24 988)))
(assert (= "0" (str.at var37 78)))
(assert (= "g" (str.at var26 403)))
(assert (= "U" (str.at var6 527)))
(assert (= ";" (str.at var14 658)))
(assert (= "b" (str.at var46 924)))
(assert (= "K" (str.at var18 893)))
(assert (= "S" (str.at var3 10)))
(assert (= "A" (str.at var12 342)))
(assert (= "`" (str.at var22 24)))
(assert (= "N" (str.at var12 583)))
(assert (= "^" (str.at var18 199)))
(assert (= "k" (str.at var16 470)))
(assert (= "y" (str.at var53 823)))
(assert (= "^" (str.at var53 384)))
(assert (= "z" (str.at var35 397)))
(assert (= "y" (str.at var59 390)))
(assert (= "P" (str.at var35 22)))
(assert (= "5" (str.at var12 944)))
(assert (= ";" (str.at var16 762)))
(assert (= "O" (str.at var39 93)))
(assert (= "." (str.at var35 505)))
(assert (= "1" (str.at var38 691)))
(assert (= "$" (str.at var28 235)))
(assert (= "G" (str.at var14 66)))
(assert (= "A" (str.at var21 745)))
(assert (= "4" (str.at var56 534)))
(assert (= "@" (str.at var21 147)))
(assert (= "f" (str.at var10 137)))
(assert (= "^" (str.at var15 123)))
(assert (= "]" (str.at var36 502)))
(assert (= "*" (str.at var31 909)))
(assert (= "f" (str.at var34 517)))
(assert (= "\\" (str.at var13 191)))
(assert (= "t" (str.at var35 842)))
(assert (= "u" (str.at var30 626)))
(assert (= "C" (str.at var19 38)))
(assert (= "z" (str.at var36 688)))
(assert (= ")" (str.at var9 935)))
(assert (= "@" (str.at var21 904)))
(assert (= "y" (str.at var12 901)))
(assert (= ">" (str.at var56 19)))
(assert (= "=" (str.at var52 694)))
(assert (= "A" (str.at var50 254)))
(assert (= "0" (str.at var35 942)))
(assert (= ";" (str.at var35 422)))
(assert (= "r" (str.at var56 314)))
(assert (= "s" (str.at var37 345)))
(assert (= "e" (str.at var49 251)))
(assert (= "*" (str.at var15 462)))
(assert (= "<" (str.at var22 675)))
(assert (= "v" (str.at var54 200)))
(assert (= "w" (str.at var36 684)))
(assert (= "@" (str.at var30 497)))
(assert (= "e" (str.at var54 907)))
(assert (= "w" (str.at var15 64)))
(assert (= "<" (str.at var47 18)))
(assert (= "`" (str.at var42 228)))
(assert (= "O" (str.at var40 554)))
(assert (= "9" (str.at var7 108)))
(assert (= "q" (str.at var6 943)))
(assert (= "`" (str.at var14 984)))
(assert (= "1" (str.at var40 357)))
(assert (= "z" (str.at var21 464)))
(assert (= "U" (str.at var33 471)))
(assert (= "7" (str.at var39 509)))
(assert (= "w" (str.at var33 790)))
(assert (= "/" (str.at var40 894)))
(assert (= "$" (str.at var3 695)))
(assert (= "n" (str.at var5 403)))
(assert (= "m" (str.at var6 725)))
(assert (= "a" (str.at var0 323)))
(assert (= "*" (str.at var9 847)))
(assert (= "+" (str.at var52 301)))
(assert (= "d" (str.at var32 68)))
(assert (= "l" (str.at var30 117)))
(assert (= "\\" (str.at var3 17)))
(assert (= "S" (str.at var59 886)))
(assert (= "D" (str.at var58 853)))
(assert (= "?" (str.at var8 9)))
(assert (= "P" (str.at var35 832)))
(assert (= "E" (str.at var22 698)))
(assert (= "Q" (str.at var33 160)))
(assert (= "r" (str.at var9 487)))
(assert (= "x" (str.at var24 598)))
(assert (= "s" (str.at var48 432)))
(assert (= "[" (str.at var44 177)))
(assert (= "J" (str.at var14 447)))
(assert (= "B" (str.at var32 579)))
(assert (= "N" (str.at var38 576)))
(assert (= "u" (str.at var58 80)))
(assert (= "J" (str.at var14 485)))
(assert (= "e" (str.at var22 903)))
(assert (= "^" (str.at var33 360)))
(assert (= "R" (str.at var39 310)))
(assert (= "\\" (str.at var23 701)))
(assert (= "l" (str.at var2 266)))
(assert (= "'" (str.at var32 671)))
(assert (= "^" (str.at var0 242)))
(assert (= "s" (str.at var41 268)))
(assert (= "l" (str.at var35 527)))
(assert (= "-" (str.at var28 183)))
(assert (= "%" (str.at var42 803)))
(assert (= "`" (str.at var54 338)))
(assert (= "W" (str.at var42 881)))
(assert (= "2" (str.at var16 608)))
(assert (= "m" (str.at var4 774)))
(assert (= "." (str.at var8 212)))
(assert (= "k" (str.at var51 603)))
(assert (= "1" (str.at var49 886)))
(assert (= "3" (str.at var21 580)))
(assert (= "0" (str.at var53 111)))
(assert (= "m" (str.at var48 622)))
(assert (= "g" (str.at var23 152)))
(assert (= "%" (str.at var10 150)))
(assert (= "6" (str.at var28 699)))
(assert (= "c" (str.at var36 119)))
(assert (= "g" (str.at var53 588)))
(assert (= "i" (str.at var30 258)))
(assert (= "v" (str.at var37 51)))
(assert (= "s" (str.at var35 301)))
(assert (= "^" (str.at var55 470)))
(assert (= "K" (str.at var40 936)))
(assert (= "\\" (str.at var23 114)))
(assert (= "Y" (str.at var56 730)))
(assert (= "C" (str.at var57 794)))
(assert (= "t" (str.at var8 510)))
(assert (= "[" (str.at var50 97)))
(assert (= "u" (str.at var44 709)))
(assert (= "C" (str.at var11 93)))
(assert (= ":" (str.at var3 282)))
(assert (= "w" (str.at var37 420)))
(assert (= "h" (str.at var51 104)))
(assert (= "{" (str.at var29 64)))
(assert (= "C" (str.at var8 921)))
(assert (= "^" (str.at var51 349)))
(assert (= "{" (str.at var58 747)))
(assert (= "s" (str.at var57 784)))
(assert (= ":" (str.at var53 692)))
(assert (= "s" (str.at var13 766)))
(assert (= "6" (str.at var4 127)))
(assert (= "H" (str.at var44 651)))
(assert (= "Y" (str.at var11 333)))
(assert (= "l" (str.at var57 86)))
(assert (= "?" (str.at var45 172)))
(assert (= "8" (str.at var0 859)))
(assert (= "<" (str.at var41 649)))
(assert (= "o" (str.at var54 674)))
(assert (= "l" (str.at var0 86)))
(assert (= "f" (str.at var3 801)))
(assert (= "-" (str.at var53 253)))
(assert (= "9" (str.at var10 790)))
(assert (= "S" (str.at var29 604)))
(assert (= "M" (str.at var0 743)))
(assert (= "O" (str.at var51 823)))
(assert (= "!" (str.at var29 30)))
(assert (= "]" (str.at var17 399)))
(assert (= "-" (str.at var23 162)))
(assert (= "%" (str.at var10 618)))
(assert (= "1" (str.at var25 613)))
(assert (= "T" (str.at var43 486)))
(assert (= "8" (str.at var3 837)))
(assert (= "\\" (str.at var21 786)))
(assert (= "=" (str.at var3 604)))
(assert (= "w" (str.at var29 195)))
(assert (= "V" (str.at var58 930)))
(assert (= "Q" (str.at var33 555)))
(assert (= "<" (str.at var6 21)))
(assert (= "S" (str.at var41 263)))
(assert (= ";" (str.at var18 161)))
(assert (= "\\" (str.at var18 60)))
(assert (= "i" (str.at var57 315)))
(assert (= "6" (str.at var14 654)))
(assert (= "f" (str.at var22 868)))
(assert (= "P" (str.at var6 774)))
(assert (= "0" (str.at var7 406)))
(assert (= ";" (str.at var32 543)))
(assert (= "}" (str.at var12 691)))
(assert (= "W" (str.at var48 623)))
(assert (= "y" (str.at var16 155)))
(assert (= "w" (str.at var1 449)))
(assert (= "<" (str.at var46 948)))
(assert (= "Z" (str.at var46 87)))
(assert (= "H" (str.at var8 328)))
(assert (= "b" (str.at var11 678)))
(assert (= "8" (str.at var11 510)))
(assert (= ")" (str.at var59 394)))
(assert (= "<" (str.at var32 596)))
(assert (= "G" (str.at var57 102)))
(assert (= """" (str.at var50 552)))
(assert (= "Y" (str.at var2 763)))
(assert (= "f" (str.at var35 263)))
(assert (= "?" (str.at var29 862)))
(assert (= "q" (str.at var11 20)))
(assert (= "(" (str.at var25 676)))
(assert (= "C" (str.at var19 973)))
(assert (= "-" (str.at var50 46)))
(assert (= "~" (str.at var11 426)))
(assert (= "@" (str.at var23 78)))
(assert (= "S" (str.at var28 38)))
(assert (= "j" (str.at var16 132)))
(assert (= "5" (str.at var41 765)))
(assert (= "F" (str.at var55 487)))
(assert (= "q" (str.at var39 413)))
(assert (= "2" (str.at var14 42)))
(assert (= "O" (str.at var34 162)))
(assert (= "O" (str.at var49 774)))
(assert (= "u" (str.at var24 347)))
(assert (= "F" (str.at var30 352)))
(assert (= "4" (str.at var56 995)))
(assert (= "@" (str.at var55 947)))
(assert (= "@" (str.at var46 633)))
(assert (= "0" (str.at var32 393)))
(assert (= "C" (str.at var50 956)))
(assert (= "o" (str.at var54 450)))
(assert (= "{" (str.at var40 629)))
(assert (= "O" (str.at var24 667)))
(assert (= "Q" (str.at var35 585)))
(assert (= "@" (str.at var15 21)))
(assert (= "2" (str.at var50 858)))
(assert (= "," (str.at var12 954)))
(assert (= "F" (str.at var6 816)))
(assert (= "N" (str.at var48 916)))
(assert (= "." (str.at var3 696)))
(assert (= "H" (str.at var35 297)))
(assert (= "{" (str.at var22 633)))
(assert (= "-" (str.at var51 794)))
(assert (= "X" (str.at var50 981)))
(assert (= "]" (str.at var31 448)))
(assert (= "I" (str.at var27 154)))
(assert (= "{" (str.at var24 844)))
(assert (= "2" (str.at var25 884)))
(assert (= "." (str.at var13 854)))
(assert (= "K" (str.at var44 470)))
(assert (= "Y" (str.at var44 710)))
(assert (= "G" (str.at var41 928)))
(assert (= "h" (str.at var29 904)))
(assert (= "B" (str.at var55 115)))
(assert (= "}" (str.at var37 347)))
(assert (= "M" (str.at var4 147)))
(assert (= "P" (str.at var56 389)))
(assert (= "h" (str.at var44 118)))
(assert (= "p" (str.at var14 198)))
(assert (= "I" (str.at var34 329)))
(assert (= "!" (str.at var22 342)))
(assert (= "/" (str.at var12 258)))
(assert (= "a" (str.at var47 581)))
(assert (= "}" (str.at var4 442)))
(assert (= "I" (str.at var22 400)))
(assert (= "z" (str.at var39 707)))
(assert (= "|" (str.at var10 513)))
(assert (= "S" (str.at var10 906)))
(assert (= "/" (str.at var44 996)))
(assert (= "q" (str.at var25 225)))
(assert (= "u" (str.at var13 548)))
(assert (= "N" (str.at var28 769)))
(assert (= "6" (str.at var55 477)))
(assert (= "9" (str.at var29 8)))
(assert (= "&" (str.at var28 740)))
(assert (= "K" (str.at var20 388)))
(assert (= "H" (str.at var38 32)))
(assert (= "y" (str.at var35 18)))
(assert (= "'" (str.at var20 799)))
(assert (= "r" (str.at var33 601)))
(assert (= "~" (str.at var44 47)))
(assert (= "s" (str.at var18 416)))
(assert (= "e" (str.at var18 685)))
(assert (= "F" (str.at var47 741)))
(assert (= "6" (str.at var19 307)))
(assert (= "V" (str.at var28 567)))
(assert (= "!" (str.at var48 453)))
(assert (= "i" (str.at var44 46)))
(assert (= "X" (str.at var45 843)))
(assert (= "@" (str.at var22 31)))
(assert (= "P" (str.at var29 439)))
(assert (= "E" (str.at var3 881)))
(assert (= "Y" (str.at var14 696)))
(assert (= "X" (str.at var22 486)))
(assert (= "&" (str.at var39 906)))
(assert (= "H" (str.at var51 128)))
(assert (= "&" (str.at var15 730)))
(assert (= "g" (str.at var0 935)))
(assert (= "+" (str.at var40 210)))
(assert (= "H" (str.at var33 315)))
(assert (= "}" (str.at var42 538)))
(assert (= "?" (str.at var42 370)))
(assert (= "$" (str.at var49 393)))
(assert (= "~" (str.at var34 173)))
(assert (= "+" (str.at var35 236)))
(assert (= "h" (str.at var34 203)))
(assert (= "+" (str.at var39 261)))
(assert (= "[" (str.at var29 263)))
(assert (= "5" (str.at var1 554)))
(assert (= "=" (str.at var26 461)))
(assert (= "2" (str.at var45 386)))
(assert (= "I" (str.at var42 944)))
(assert (= "*" (str.at var24 336)))
(assert (= "Y" (str.at var9 866)))
(assert (= "R" (str.at var27 305)))
(assert (= "." (str.at var23 377)))
(assert (= "^" (str.at var37 408)))
(assert (= "R" (str.at var32 635)))
(assert (= "H" (str.at var43 704)))
(assert (= ")" (str.at var55 604)))
(assert (= "u" (str.at var21 659)))
(assert (= "h" (str.at var54 197)))
(assert (= "-" (str.at var13 664)))
(assert (= "C" (str.at var34 662)))
(assert (= "Y" (str.at var10 795)))
(assert (= "(" (str.at var26 920)))
(assert (= "4" (str.at var48 335)))
(assert (= "d" (str.at var7 856)))
(assert (= "]" (str.at var0 927)))
(assert (= "o" (str.at var55 761)))
(assert (= "Z" (str.at var54 551)))
(assert (= "V" (str.at var22 946)))
(assert (= "W" (str.at var51 792)))
(assert (= "9" (str.at var54 942)))
(assert (= "\\" (str.at var4 798)))
(assert (= "J" (str.at var51 251)))
(assert (= "}" (str.at var43 48)))
(assert (= "'" (str.at var20 562)))
(assert (= "J" (str.at var19 33)))
(assert (= "%" (str.at var17 138)))
(assert (= "L" (str.at var40 431)))
(assert (= "a" (str.at var47 562)))
(assert (= "v" (str.at var52 241)))
(assert (= "j" (str.at var33 327)))
(assert (= "B" (str.at var53 866)))
(assert (= "p" (str.at var43 291)))
(assert (= "d" (str.at var5 457)))
(assert (= "1" (str.at var13 835)))
(assert (= "G" (str.at var41 219)))
(assert (= "g" (str.at var55 615)))
(assert (= "T" (str.at var37 662)))
(assert (= "4" (str.at var25 645)))
(assert (= "c" (str.at var20 637)))
(assert (= "f" (str.at var26 648)))
(assert (= "P" (str.at var39 39)))
(assert (= "Z" (str.at var7 302)))
(assert (= "G" (str.at var32 483)))
(assert (= "C" (str.at var20 192)))
(assert (= "~" (str.at var6 884)))
(assert (= "B" (str.at var52 588)))
(assert (= "Q" (str.at var23 229)))
(assert (= "P" (str.at var54 250)))
(assert (= "y" (str.at var11 799)))
(assert (= "B" (str.at var23 170)))
(assert (= "{" (str.at var25 839)))
(assert (= "[" (str.at var34 364)))
(assert (= "k" (str.at var15 183)))
(assert (= "o" (str.at var37 838)))
(assert (= "V" (str.at var35 714)))
(assert (= "*" (str.at var38 917)))
(assert (= "a" (str.at var43 877)))
(assert (= "D" (str.at var22 85)))
(assert (= "{" (str.at var2 228)))
(assert (= "W" (str.at var12 730)))
(assert (= "k" (str.at var60 250)))
(assert (= "J" (str.at var5 896)))
(assert (= "a" (str.at var23 422)))
(assert (= "%" (str.at var14 331)))
(assert (= "`" (str.at var38 158)))
(assert (= "6" (str.at var11 518)))
(assert (= "=" (str.at var3 304)))
(assert (= "^" (str.at var60 137)))
(assert (= "7" (str.at var40 764)))
(assert (= "x" (str.at var42 588)))
(assert (= "<" (str.at var32 704)))
(assert (= "I" (str.at var38 9)))
(assert (= "j" (str.at var51 532)))
(assert (= "Y" (str.at var49 418)))
(assert (= "k" (str.at var59 417)))
(assert (= "%" (str.at var10 850)))
(assert (= "s" (str.at var11 659)))
(assert (= "I" (str.at var21 379)))
(assert (= "S" (str.at var20 568)))
(assert (= "3" (str.at var9 120)))
(assert (= "w" (str.at var50 683)))
(assert (= "#" (str.at var4 298)))
(assert (= "z" (str.at var38 109)))
(assert (= ")" (str.at var8 964)))
(assert (= ")" (str.at var51 308)))
(assert (= "4" (str.at var52 845)))
(assert (= "3" (str.at var5 421)))
(assert (= "&" (str.at var16 674)))
(assert (= "$" (str.at var20 668)))
(assert (= "}" (str.at var31 30)))
(assert (= "x" (str.at var1 956)))
(assert (= "v" (str.at var33 376)))
(assert (= "d" (str.at var58 226)))
(assert (= "l" (str.at var15 30)))
(assert (= "E" (str.at var48 282)))
(assert (= "e" (str.at var26 663)))
(assert (= "g" (str.at var43 976)))
(assert (= "~" (str.at var55 526)))
(assert (= "%" (str.at var37 425)))
(assert (= "@" (str.at var7 16)))
(assert (= ">" (str.at var34 525)))
(assert (= "U" (str.at var34 814)))
(assert (= "]" (str.at var15 218)))
(assert (= "|" (str.at var5 160)))
(assert (= "9" (str.at var18 1000)))
(assert (= "n" (str.at var29 807)))
(assert (= "a" (str.at var45 454)))
(assert (= "K" (str.at var7 539)))
(assert (= "A" (str.at var22 464)))
(assert (= "'" (str.at var46 113)))
(assert (= "G" (str.at var35 955)))
(assert (= "$" (str.at var37 883)))
(assert (= "B" (str.at var48 618)))
(assert (= "k" (str.at var26 254)))
(assert (= "m" (str.at var6 151)))
(assert (= "K" (str.at var7 694)))
(assert (= "S" (str.at var49 734)))
(assert (= "%" (str.at var8 123)))
(assert (= "6" (str.at var2 7)))
(assert (= ">" (str.at var52 72)))
(assert (= "~" (str.at var16 170)))
(assert (= "k" (str.at var14 432)))
(assert (= "^" (str.at var30 465)))
(assert (= "N" (str.at var27 910)))
(assert (= "*" (str.at var53 743)))
(assert (= "w" (str.at var42 51)))
(assert (= "j" (str.at var49 565)))
(assert (= "6" (str.at var26 475)))
(assert (= "h" (str.at var34 626)))
(assert (= "=" (str.at var17 824)))
(assert (= "y" (str.at var30 971)))
(assert (= "]" (str.at var56 562)))
(assert (= "X" (str.at var38 698)))
(assert (= ";" (str.at var15 594)))
(assert (= "?" (str.at var14 605)))
(assert (= "2" (str.at var45 295)))
(assert (= "l" (str.at var33 298)))
(assert (= "U" (str.at var5 903)))
(assert (= "F" (str.at var41 383)))
(assert (= "T" (str.at var36 990)))
(assert (= "I" (str.at var21 167)))
(assert (= "1" (str.at var60 393)))
(assert (= "H" (str.at var2 953)))
(assert (= "<" (str.at var29 373)))
(assert (= "_" (str.at var53 508)))
(assert (= "Q" (str.at var46 92)))
(assert (= "(" (str.at var60 757)))
(assert (= "y" (str.at var14 119)))
(assert (= "r" (str.at var48 870)))
(assert (= ":" (str.at var20 722)))
(assert (= "_" (str.at var19 320)))
(assert (= "/" (str.at var13 456)))
(assert (= ":" (str.at var33 172)))
(assert (= "+" (str.at var5 604)))
(assert (= "D" (str.at var22 421)))
(assert (= "-" (str.at var59 220)))
(assert (= "R" (str.at var0 348)))
(assert (= "4" (str.at var21 616)))
(assert (= "4" (str.at var50 476)))
(assert (= "s" (str.at var55 855)))
(check-sat)